NAME:  br4
TYPE: ATSP
COMMENT: 17 city problem (Repetto)
DIMENSION:  4
EDGE_WEIGHT_TYPE: EXPLICIT
EDGE_WEIGHT_FORMAT: FULL_MATRIX
EDGE_WEIGHT_SECTION
 9999    10    15   20   5    9999    9    10    6    15    9999    12    11    8    9    9999
EOF
